# Solution for model r5_t27_m0_9 Batch Number: 4
# Finished Task: 25 / 27
# Makespan: 839.0, Total Distance: 653.0, Total Time: 1.3040
# R O S F Batch
0 0 9 0.0 0.0 -1
1 1 25 0.0 0.0 -1
2 2 31 0.0 0.0 -1
3 3 15 0.0 0.0 -1
4 4 13 0.0 0.0 -1
5 -1 -1 -1.0 -1.0 0
6 1 30 649.0 675.0 2
7 4 26 370.0 399.0 0
8 3 12 362.0 382.0 0
9 0 20 578.0 604.0 0
10 -1 -1 -1.0 -1.0 3
11 2 24 739.0 768.0 2
12 3 19 394.0 421.0 0
13 4 7 274.0 306.0 0
14 3 -1 813.0 834.0 3
15 3 8 306.0 333.0 0
16 3 17 605.0 641.0 2
17 3 14 641.0 672.0 3
18 1 -1 813.0 839.0 3
19 3 16 531.0 562.0 2
20 0 22 631.0 662.0 1
21 4 23 509.0 535.0 0
22 0 -1 684.0 704.0 3
23 4 28 604.0 629.0 0
24 2 -1 782.0 813.0 3
25 1 29 548.0 578.0 0
26 4 21 439.0 466.0 0
27 4 -1 773.0 800.0 3
28 4 27 707.0 739.0 2
29 1 6 595.0 615.0 2
30 1 18 704.0 741.0 3
31 2 11 611.0 646.0 0
